DIMENSION: 101
36
47
46
45
8
82
48
19
62
10
30
70
31
88
7
52
83
18
60
5
84
17
61
91
100
98
37
92
59
97
87
95
58
40
53
101
27
28
13
94
89
6
96
99
93
85
16
86
44
38
14
42
43
15
57
2
73
21
72
74
41
22
75
56
39
67
23
4
25
55
54
26
12
80
68
24
29
76
69
1
50
77
3
79
33
81
78
34
51
9
35
71
65
66
20
32
90
63
11
64
49
